(set-info :source |printed by MathSAT|)
(declare-fun |main::s| () (_ BitVec 64))
(declare-fun |main::temp| () (_ BitVec 64))
(declare-fun |main::q| () (_ BitVec 64))
(declare-fun |main::tmp_var_2_int| () (_ BitVec 32))
(declare-fun |main::b| () (_ BitVec 64))

main:
(assert (let ((.def_237 ((_ sign_extend 32) |main::tmp_var_2_int|)))(let ((.def_239 (bvmul |main::q| .def_237)))(let ((.def_234 (bvmul |main::s| |main::temp|)))(let ((.def_241 (bvadd .def_234 .def_239)))(let ((.def_243 (= .def_241 |main::b|))).def_243))))))

